/*********************************************
 * OPL 12.6.0.0 Data
 * Author: Adrian Rodriguez Bazaga, Pau Rodriguez Esmerats
 * Creation Date: 30/11/2017 at 21:43:51
 *********************************************/

nNurses=512;
maxConsec=2;
maxPresence=7;
maxHours=5;
minHours=1;
demand= [109 103 156 161 103 156 161 109 101 63 4 15 9 19 14 13 14 8 10 4 105 177 77 155  ];
